285252751146960731505,10,1,2,03,9,1,2,010,9,1,2,05,13,1,2,06,11,1,2,012,3,1,2,011,12,1,2,013,9,1,2,014,5,1,2,04,11,1,2,014,3,1,2,02,14,1,2,06,8,1,2,014,1,1,2,04,14,1,2,010,7,1,2,07,4,1,2,07,2,1,2,04,6,1,2,03,8,1,2,06,10,1,2,05,4,1,2,09,10,1,2,04,7,1,2,014,8,1,2,02,6,1,2,014,2,1,2,09,2,1,2,011,8,1,2,06,3,1,2,06,10,1,2,04,4,1,2,013,10,1,2,03,10,1,2,014,12,1,2,013,1,1,2,014,7,1,2,09,4,1,2,014,5,1,2,015,1,1,2,01,9,1,2,02,3,1,2,09,15,1,2,03,14,1,2,03,6,1,2,02,15,1,2,014,4,1,2,04,14,1,2,013,7,1,2,010,8,1,2,0